(set-logic LIA) (declare-var xPostExec Int) (declare-var nPostExec Int) (declare-var yPostExec Int) (declare-var y!22 Int) (declare-var inI2 Int) (declare-var y!M0 Int) (declare-var n!0 Int) (declare-var inB3 Bool) (declare-var inI0 Int) (declare-var x!M0 Int) (declare-var x!16 Int) (declare-var J7 Bool) (declare-var inB5 Bool) (declare-var J4 Bool) (synth-fun rankingFunction!0 ((arg0 Int) (arg1 Int) (arg2 Int)) Int ((NTInt Int) (NTbool Bool)) ((NTInt Int (arg0 arg1 arg2 0 1 (- NTInt) (+ NTInt NTInt) (- NTInt NTInt) (ite NTbool NTInt NTInt))) (NTbool Bool ((not NTbool) (and NTbool NTbool) (or NTbool NTbool) (ite NTbool NTbool NTbool) (= NTInt NTInt) (< NTInt NTInt) (> NTInt NTInt))))) (constraint (=> (and (and (and (and (and (and (and (and (and (and (and (and (and (and (= J4 (<= x!M0 0)) (= J7 (>= x!M0 n!0))) (= x!16 (+ (- 5) (+ (* (- 1) x!M0) y!M0)))) (= y!22 (* 2 y!M0))) (=> (and (not J4) (not J7)) (= xPostExec x!16))) (=> (and (not J4) (not J7)) (= yPostExec y!22))) (and (not J4) (not J7))) (= inB3 (<= inI2 0))) (= inB5 (>= inI2 n!0))) (= x!M0 (+ (- 5) (+ (* (- 1) inI2) inI0)))) (= y!M0 (* 2 inI0))) (and (not inB3) (not inB5))) (> n!0 0)) (>= n!0 0)) (= n!0 nPostExec)) (and (> (rankingFunction!0 x!M0 y!M0 n!0) (rankingFunction!0 xPostExec yPostExec nPostExec)) (>= (rankingFunction!0 x!M0 y!M0 n!0) 0)))) (check-synth)